5 0 1 0 3
2 0 2 0 5
3 0 1 3 5
5 1 3 3 3
0 0 2 5 1
4 0 2 6 9
2 1 3 6 4
5 2 5 6 9
1 0 1 8 8
2 2 5 15 8
5 3 0 15 10
4 1 1 16 3
1 1 2 16 5
4 2 4 19 5
1 2 4 24 10
4 3 5 24 4
3 1 0 25 5
0 1 0 30 3
3 2 2 30 5
0 2 1 33 6
2 3 0 33 9
1 3 5 34 10
5 4 4 34 4
3 3 3 35 3
5 5 2 38 1
3 4 4 38 8
0 3 3 39 7
2 4 1 42 1
1 4 0 44 10
0 4 5 46 3
2 5 4 46 7
3 5 5 49 9
0 5 4 53 6
1 5 3 54 4
4 4 0 54 3
4 5 3 58 1
